# Solution for model MIP
# Objective value = -5.5071532749325240e+02
B0(10) 1
B1(10) 0
B2(10) 1
B3(10) 0
B4(10) 0
B5(10) 1
B6(10) 1
B7(10) 0
B8(10) 0
B9(10) 1
B10(10) 0
B11(10) 1
B12(10) 0
B13(10) 1
B14(10) 0
B15(10) 0
B16(10) 1
B17(10) 0
B18(10) 1
B19(10) 0
B20(10) 1
B21(10) 0
B22(10) 1
B23(10) 0
B24(10) 1
B25(10) 0
B26(10) 1
B27(10) 1
B28(10) 0
B29(10) 0
B30(10) 0
B31(10) 0
B32(10) 1
B33(10) 1
B34(10) 0
B35(10) 1
B36(10) 0
B37(10) 0
B38(10) 1
B39(10) 0
B40(10) 0
B41(10) 0
B42(10) 1
B43(10) 1
C44(360) 2.5064191430422178e-01
C45(357) 2.5237899157097354e-01
C46(358) 2.5875260214786838e-01
C47(359) 2.3822649197693627e-01
C48(18) -4.0121071503681742e+02
C49(2) 7.2925765928671660e-01
C50(2) 8.0516514207201795e-01
C51(1) 9.1531999038020151e-01
C52(1) 4.6281550926792936e-01
C53(2) 7.2230222746265649e-01
C54(2) 7.8830151397967996e-01
C55(2) 7.2817702233277981e-01
C56(2) 7.5134339173061371e-01
C57(1) 9.1531999038020151e-01
C58(1) 4.6281550926792936e-01
C59(2) 7.2185675689391138e-01
C60(2) 7.2724686963574781e-01
C61(2) 7.2860356527878278e-01
C62(2) 7.2942172205465627e-01
C63(2) 7.9373384880845121e-01
C64(2) 7.9652175377220458e-01
C65(2) 7.1914221975700987e-01
C66(2) 7.1745724293181889e-01
C67(1) 9.1531999038020151e-01
C68(1) 4.6281550926792936e-01
C69(2) 7.9190315610123607e-01
C70(2) 7.9190315610123596e-01
C71(1) 9.1531999038020151e-01
C72(1) 4.6281550926792936e-01
C73(1) 9.1531999038020151e-01
C74(1) 4.6281550926792936e-01
C75(2) 7.9401278717078827e-01
C76(2) 7.9201708924600778e-01
C77(1) 9.1531999038020151e-01
C78(1) 4.6281550926792936e-01
C79(4) 2.4746765633936013e-01
C80(3) 1
C81(4) 1.8105213390247157e-01
C82(4) 0
C83(3) 0
C84(4) 0
C85(4) 6.3819148268004958e-02
C86(3) 0
C87(4) 0
C88(4) 0
C89(3) 0
C90(4) 0
C91(4) 0
C92(3) 0
C93(4) 0
C94(4) 4.3633420382166133e-01
C95(3) 0
C96(4) 5.0939451645209022e-01
C97(4) 0
C98(3) 0
C99(4) 0
C100(4) 2.5237899157097354e-01
C101(3) 0
C102(4) 2.5237899157097354e-01
C103(4) 0
C104(3) 0
C105(4) 0
C106(4) 0
C107(3) 0
C108(4) 0
C109(2) 0
C110(1) 0
C111(2) 5.7174358074464700e-02
C112(4) 0
C113(3) 1
C114(4) 2.7498945627555843e-01
C115(4) 0
C116(3) 0
C117(4) 0
C118(4) 2.3822649197693627e-01
C119(3) 0
C120(4) 1.1106750574049798e-01
C121(4) 0
C122(3) 0
C123(4) 0
C124(4) 2.1562716845655697e-01
C125(3) 0
C126(4) 4.4612517611701446e-03
C127(4) 2.5237899157097354e-01
C128(3) 0
C129(4) 2.9407510728861308e-01
C130(4) 2.5064191430422172e-01
C131(3) 0
C132(4) 0
C133(4) 0
C134(3) 0
C135(4) 0
C136(4) 0
C137(3) 0
C138(4) 0
C139(4) 0
C140(3) 0
C141(4) 2.9076255907447723e-01
C142(2) 4.3125433691311471e-02
C143(1) 0
C144(2) 2.4644119859683063e-02
C145(4) 3.3197077546170300e-01
C146(4) 1.9260951433258044e-01
C147(4) 3.5687937169097861e-01
C148(4) 0
C149(4) 0
C150(4) 0
C151(4) 2.8169614683613881e-01
C152(4) 1.9124601834312363e-01
C153(4) 2.9438107274386416e-01
C154(4) 0
C155(4) 0
C156(4) 0
C157(4) 0
C158(4) 0
C159(4) 0
C160(4) 3.8633307770215825e-01
C161(4) 6.1443087393258822e-01
C162(4) 3.4873955556515723e-01
C163(4) 0
C164(4) 0
C165(4) 0
C166(4) 0
C167(4) 0
C168(4) 0
C169(4) 0
C170(4) 0
C171(4) 0
C172(4) 0
C173(4) 0
C174(4) 0
C175(2) 0
C176(2) 1.7135933917077377e-03
C177(2) 0
C178(3) 1
C179(4) 1.0897474534966164e-02
C180(3) 1
C181(3) 0
C182(4) 0
C183(3) 0
C184(3) 0
C185(4) 1.0972999633520589e-02
C186(3) 0
C187(3) 0
C188(4) 0
C189(3) 0
C190(3) 0
C191(4) 0
C192(3) 0
C193(3) 0
C194(4) 4.0140159738363601e-01
C195(3) 0
C196(3) 0
C197(4) 1.9615454162939114e-01
C198(3) 0
C199(3) 0
C200(4) 0
C201(3) 0
C202(3) 0
C203(4) 0
C204(3) 0
C205(3) 0
C206(4) 3.8057338681848613e-01
C207(3) 0
C208(1) 0
C209(2) 0
C210(1) 0
C211(3) 1
C212(4) 2.0371511875008003e-01
C213(3) 1
C214(3) 0
C215(4) 0
C216(3) 0
C217(3) 0
C218(4) 1.9101589096880522e-01
C219(3) 0
C220(3) 0
C221(4) 0
C222(3) 0
C223(3) 0
C224(4) 0
C225(3) 0
C226(3) 0
C227(4) 6.0390713448033650e-01
C228(3) 0
C229(3) 0
C230(4) 0
C231(3) 0
C232(3) 0
C233(4) 0
C234(3) 0
C235(3) 0
C236(4) 0
C237(3) 0
C238(3) 0
C239(4) 0
C240(3) 0
C241(1) 0
C242(2) 1.3618558007782546e-03
C243(1) 0
C244(4) 6.9290943775020839e+00
C245(4) 0
C246(4) 4.5263033475617895e+00
C247(4) 0
C248(4) 0
C249(4) 0
C250(4) 1.7869361515041389e+00
C251(4) 0
C252(4) 0
C253(4) 0
C254(4) 0
C255(4) 0
C256(6) 0
C257(6) 0
C258(6) 0
C259(6) 1.2217357707006517e+01
C260(6) 0
C261(6) 1.2734862911302255e+01
C262(6) 0
C263(6) 0
C264(6) 0
C265(6) 7.0666117639872592e+00
C266(6) 0
C267(6) 6.3094747892743381e+00
C268(6) 0
C269(6) 0
C270(6) 0
C271(6) 0
C272(6) 0
C273(6) 0
C274(2) 0
C275(2) 0
C276(2) 1.4293589518616174e+00
C277(4) 0
C278(4) 0
C279(4) 1.5949388463982389e+01
C280(4) 0
C281(4) 0
C282(4) 0
C283(4) 4.2880768555848530e+00
C284(4) 0
C285(4) 6.4419153329488825e+00
C286(4) 0
C287(4) 0
C288(4) 0
C289(6) 3.8812890322180258e+00
C290(6) 0
C291(6) 2.5875260214786838e-01
C292(6) 4.5428218482775238e+00
C293(6) 0
C294(6) 1.7056356222739559e+01
C295(6) 4.5115544574759916e+00
C296(6) 0
C297(6) 0
C298(6) 0
C299(6) 0
C300(6) 0
C301(6) 0
C302(6) 0
C303(6) 0
C304(6) 0
C305(6) 0
C306(6) 1.6864228426319681e+01
C307(2) 7.7625780644360654e-01
C308(2) 0
C309(2) 1.4293589518616177e+00
C310(4) 7.3033570601574658e+00
C311(4) 2.9084036664219646e+01
C312(4) 4.9606232665046029e+01
C313(4) 0
C314(4) 0
C315(4) 0
C316(4) 6.1973152303950538e+00
C317(4) 2.8878148769811670e+01
C318(4) 4.0918969111397118e+01
C319(4) 0
C320(4) 0
C321(4) 0
C322(6) 0
C323(6) 0
C324(6) 0
C325(6) 8.4993277094474813e+00
C326(6) 9.2779061963820823e+01
C327(6) 4.8474798223556853e+01
C328(6) 0
C329(6) 0
C330(6) 0
C331(6) 0
C332(6) 0
C333(6) 0
C334(6) 0
C335(6) 0
C336(6) 0
C337(6) 0
C338(6) 0
C339(6) 0
C340(2) 0
C341(2) 2.5875260214786838e-01
C342(2) 0
C343(4) 0
C344(4) 2.5064191430422178e-01
C345(4) 0
C346(4) 0
C347(4) 0
C348(4) 0
C349(4) 0
C350(4) 2.5237899157097354e-01
C351(4) 0
C352(4) 0
C353(4) 0
C354(4) 0
C355(6) 0
C356(6) 0
C357(6) 0
C358(6) 0
C359(6) 9.2322367398236285e+00
C360(6) 0
C361(6) 0
C362(6) 4.5115544574759960e+00
C363(6) 0
C364(6) 0
C365(6) 0
C366(6) 0
C367(6) 0
C368(6) 0
C369(6) 0
C370(6) 0
C371(6) 8.7531878968251817e+00
C372(6) 0
C373(2) 0
C374(2) 0
C375(2) 0
C376(4) 0
C377(4) 3.8705872562515204e+01
C378(4) 0
C379(4) 0
C380(4) 0
C381(4) 0
C382(4) 0
C383(4) 3.6293019284072990e+01
C384(4) 0
C385(4) 0
C386(4) 0
C387(4) 0
C388(6) 0
C389(6) 0
C390(6) 0
C391(6) 0
C392(6) 1.1474235555126394e+02
C393(6) 0
C394(6) 0
C395(6) 0
C396(6) 0
C397(6) 0
C398(6) 0
C399(6) 0
C400(6) 0
C401(6) 0
C402(6) 0
C403(6) 0
C404(6) 0
C405(6) 0
C406(2) 0
C407(2) 2.5875260214786838e-01
C408(2) 0
I409(1) 0
I410(1) 0
I411(1) 0
I412(1) 0
I413(1) 0
I414(1) 0
I415(1) 3
I416(1) 0
I417(1) 0
I418(1) 0
I419(1) 0
I420(1) 0
I421(1) 0
I422(1) 0
I423(1) 0
I424(1) 25
I425(1) 0
I426(1) 25
I427(1) 0
I428(1) 0
I429(1) 0
I430(1) 0
I431(1) 0
I432(1) 0
I433(1) 0
I434(1) 0
I435(1) 0
I436(1) 0
I437(1) 0
I438(1) 0
I439(1) 0
I440(1) 0
I441(1) 0
I442(1) 0
I443(1) 0
I444(1) 0
I445(1) 0
I446(1) 0
I447(1) 0
I448(1) 0
I449(1) 0
I450(1) 0
I451(1) 0
I452(1) 0
I453(1) 0
I454(1) 0
I455(1) 0
I456(1) 0
I457(1) 0
I458(1) 0
I459(1) 32
I460(1) 18
I461(1) 0
I462(1) 0
I463(1) 0
I464(1) 0
I465(1) 0
I466(1) 0
I467(1) 0
I468(1) 0
I469(1) 0
I470(1) 0
I471(1) 26
I472(1) 0
I473(1) 0
I474(1) 0
I475(1) 9
I476(1) 24
I477(1) 53
I478(1) 0
I479(1) 0
I480(1) 0
I481(1) 0
I482(1) 81
I483(1) 0
I484(1) 0
I485(1) 0
I486(1) 0
I487(1) 0
I488(1) 0
I489(1) 0
I490(1) 13
I491(1) 46
I492(1) 86
I493(1) 0
I494(1) 0
I495(1) 0
I496(1) 0
I497(1) 0
I498(1) 0
I499(1) 0
I500(1) 0
I501(1) 0
I502(1) 0
I503(1) 0
I504(1) 0
I505(1) 0
I506(1) 0
I507(1) 0
I508(1) 0
I509(1) 1
I510(1) 0
I511(1) 0
I512(1) 0
I513(1) 0
I514(1) 0
I515(1) 0
I516(1) 0
I517(1) 0
I518(1) 0
I519(1) 0
I520(1) 0
I521(1) 0
I522(1) 0
I523(1) 0
I524(1) 0
I525(1) 0
I526(1) 0
I527(1) 18
I528(1) 0
I529(1) 0
I530(1) 0
I531(1) 0
I532(1) 0
I533(1) 0
I534(1) 0
I535(1) 0
I536(1) 4
I537(1) 0
I538(1) 0
I539(1) 0
I540(1) 0
I541(1) 0
I542(1) 77
I543(1) 0
I544(1) 0
I545(1) 0
I546(1) 0
I547(1) 0
I548(1) 0
I549(1) 0
I550(1) 0
I551(1) 0
I552(1) 0
I553(1) 0
I554(1) 0
I555(1) 0
I556(1) 0
I557(1) 113
I558(1) 0
I559(1) 0
I560(1) 0
I561(1) 0
I562(1) 0
I563(1) 0
I564(1) 0
I565(1) 0
I566(1) 0
I567(1) 0
I568(1) 0
I569(1) 0
I570(1) 0
I571(1) 0
I572(1) 0
I573(1) 0
I574(1) 0
I575(1) 0
I576(1) 0
I577(1) 0
I578(1) 0
I579(1) 0
I580(1) 0
I581(1) 0
I582(1) 0
I583(1) 0
I584(1) 0
I585(1) 0
I586(1) 0
I587(1) 0
I588(1) 0
I589(1) 0
I590(1) 0
I591(1) 0
I592(1) 0
I593(1) 0
I594(1) 0
I595(1) 28
I596(1) 0
I597(1) 25
I598(1) 0
I599(1) 0
I600(1) 0
I601(1) 0
I602(1) 0
I603(1) 0
I604(1) 0
I605(1) 0
I606(1) 0
I607(1) 0
I608(1) 0
I609(1) 16
I610(1) 0
I611(1) 0
I612(1) 0
I613(1) 0
I614(1) 0
I615(1) 1
I616(1) 0
I617(1) 0
I618(1) 0
I619(1) 0
I620(1) 0
I621(1) 0
I622(1) 18
I623(1) 0
I624(1) 0
I625(1) 0
I626(1) 0
I627(1) 0
I628(1) 0
I629(1) 0
I630(1) 0
I631(1) 0
I632(1) 0
I633(1) 0
I634(1) 0
I635(1) 0
I636(1) 41
I637(1) 0
I638(1) 0
I639(1) 0
I640(1) 20
I641(1) 1
I642(1) 66
I643(1) 0
I644(1) 0
I645(1) 0
I646(1) 2
I647(1) 0
I648(1) 73
I649(1) 0
I650(1) 0
I651(1) 0
I652(1) 0
I653(1) 0
I654(1) 0
I655(1) 0
I656(1) 150
I657(1) 0
I658(1) 0
I659(1) 0
I660(1) 0
I661(1) 0
I662(1) 0
I663(1) 0
I664(1) 0
I665(1) 0
I666(1) 0
I667(1) 0
I668(1) 0
I669(1) 0
I670(1) 0
I671(1) 0
I672(1) 0
I673(1) 0
I674(1) 0
I675(1) 0
I676(1) 0
I677(1) 0
I678(1) 0
I679(1) 0
I680(1) 1
I681(1) 0
I682(1) 0
I683(1) 0
I684(1) 0
I685(1) 0
I686(1) 0
I687(1) 0
I688(1) 0
I689(1) 13
I690(1) 0
I691(1) 0
I692(1) 0
I693(1) 0
I694(1) 0
I695(1) 0
I696(1) 0
I697(1) 0
I698(1) 0
I699(1) 0
I700(1) 0
I701(1) 9
I702(1) 0
I703(1) 0
I704(1) 0
I705(1) 0
I706(1) 0
I707(1) 0
I708(1) 0
I709(1) 0
I710(1) 0
I711(1) 0
I712(1) 0
I713(1) 90
I714(1) 0
I715(1) 0
I716(1) 0
I717(1) 0
I718(1) 0
I719(1) 0
I720(1) 0
I721(1) 0
I722(1) 100
I723(1) 0
I724(1) 0
I725(1) 0
I726(1) 0
I727(1) 0
I728(1) 0
I729(1) 0
I730(1) 0
I731(1) 0
I732(1) 0
I733(1) 0
I734(1) 0
I735(1) 0
I736(1) 0
I737(1) 0
I738(1) 0
I739(1) 1
I740(1) 0
I741(1) 0
I742(1) 0
I743(1) 0
I744(1) 0
I745(1) 4
I746(1) 0
I747(1) 0
I748(1) 0
I749(1) 0
I750(1) 0
I751(1) 0
I752(1) 0
I753(1) 0
I754(1) 23
I755(1) 0
I756(1) 25
I757(1) 0
I758(1) 0
I759(1) 0
I760(1) 0
I761(1) 0
I762(1) 0
I763(1) 0
I764(1) 0
I765(1) 0
I766(1) 0
I767(1) 0
I768(1) 0
I769(1) 0
I770(1) 0
I771(1) 0
I772(1) 0
I773(1) 0
I774(1) 0
I775(1) 0
I776(1) 0
I777(1) 0
I778(1) 0
I779(1) 0
I780(1) 23
I781(1) 0
I782(1) 0
I783(1) 0
I784(1) 15
I785(1) 0
I786(1) 1
I787(1) 0
I788(1) 0
I789(1) 34
I790(1) 0
I791(1) 0
I792(1) 0
I793(1) 0
I794(1) 0
I795(1) 0
I796(1) 0
I797(1) 0
I798(1) 0
I799(1) 0
I800(1) 0
I801(1) 0
I802(1) 3
I803(1) 0
I804(1) 0
I805(1) 0
I806(1) 9
I807(1) 76
I808(1) 0
I809(1) 0
I810(1) 0
I811(1) 22
I812(1) 0
I813(1) 63
I814(1) 0
I815(1) 0
I816(1) 0
I817(1) 0
I818(1) 0
I819(1) 0
I820(1) 0
I821(1) 141
I822(1) 0
I823(1) 0
I824(1) 0
I825(1) 0
I826(1) 0
I827(1) 0
I828(1) 0
I829(1) 0
I830(1) 0
I831(1) 0
I832(1) 0
I833(1) 0
I834(1) 0
I835(1) 0
I836(1) 1
I837(1) 0
I838(1) 0
I839(1) 0
I840(1) 0
I841(1) 0
I842(1) 0
I843(1) 0
I844(1) 0
I845(1) 0
I846(1) 0
I847(1) 0
I848(1) 0
I849(1) 0
I850(1) 0
I851(1) 0
I852(1) 0
I853(1) 0
I854(1) 23
I855(1) 0
I856(1) 0
I857(1) 0
I858(1) 0
I859(1) 0
I860(1) 0
I861(1) 0
I862(1) 0
I863(1) 0
I864(1) 0
I865(1) 0
I866(1) 0
I867(1) 0
I868(1) 0
I869(1) 0
I870(1) 0
I871(1) 0
I872(1) 75
I873(1) 0
I874(1) 0
I875(1) 0
I876(1) 0
I877(1) 0
I878(1) 0
I879(1) 0
I880(1) 0
I881(1) 0
I882(1) 0
I883(1) 0
I884(1) 0
I885(1) 0
I886(1) 0
I887(1) 114
I888(1) 0
I889(1) 0
I890(1) 0
I891(1) 0
I892(1) 0
I893(1) 0
I894(1) 0
I895(1) 0
I896(1) 0
I897(1) 0
I898(1) 0
I899(1) 0
I900(1) 0
I901(1) 0
I902(1) 1
I903(1) 0
I904(1) 28
I905(1) 0
I906(1) 19
I907(1) 0
I908(1) 0
I909(1) 0
I910(1) 0
I911(1) 0
I912(1) 0
I913(1) 0
I914(1) 0
I915(1) 0
I916(1) 0
I917(1) 0
I918(1) 0
I919(1) 0
I920(1) 0
I921(1) 0
I922(1) 0
I923(1) 0
I924(1) 0
I925(1) 0
I926(1) 0
I927(1) 0
I928(1) 0
I929(1) 0
I930(1) 0
I931(1) 0
I932(1) 0
I933(1) 0
I934(1) 0
I935(1) 0
I936(1) 6
I937(1) 0
I938(1) 0
I939(1) 50
I940(1) 0
I941(1) 0
I942(1) 0
I943(1) 18
I944(1) 0
I945(1) 1
I946(1) 0
I947(1) 0
I948(1) 0
I949(1) 0
I950(1) 0
I951(1) 0
I952(1) 0
I953(1) 0
I954(1) 1
I955(1) 0
I956(1) 0
I957(1) 0
I958(1) 0
I959(1) 0
I960(1) 0
I961(1) 0
I962(1) 0
I963(1) 0
I964(1) 0
I965(1) 0
I966(1) 0
I967(1) 0
I968(1) 0
I969(1) 6
I970(1) 0
I971(1) 86
I972(1) 0
I973(1) 0
I974(1) 0
I975(1) 0
I976(1) 0
I977(1) 36
I978(1) 26
I979(1) 0
I980(1) 0
I981(1) 0
I982(1) 0
I983(1) 0
I984(1) 0
I985(1) 22
I986(1) 29
I987(1) 113
I988(1) 0
I989(1) 0
I990(1) 0
I991(1) 0
I992(1) 0
I993(1) 0
I994(1) 0
I995(1) 0
I996(1) 0
I997(1) 0
I998(1) 0
I999(1) 0
I1000(1) 0
I1001(1) 0
I1002(1) 0
I1003(1) 0
I1004(1) 0
I1005(1) 0
I1006(1) 0
I1007(1) 0
I1008(1) 0
I1009(1) 0
I1010(1) 0
I1011(1) 0
I1012(1) 0
I1013(1) 0
I1014(1) 0
I1015(1) 0
I1016(1) 0
I1017(1) 0
I1018(1) 0
I1019(1) 0
I1020(1) 0
I1021(1) 0
I1022(1) 0
I1023(1) 0
I1024(1) 0
I1025(1) 0
I1026(1) 0
I1027(1) 0
I1028(1) 0
I1029(1) 0
I1030(1) 0
I1031(1) 23
I1032(1) 0
I1033(1) 0
I1034(1) 0
I1035(1) 0
I1036(1) 0
I1037(1) 0
I1038(1) 0
I1039(1) 0
I1040(1) 0
I1041(1) 0
I1042(1) 0
I1043(1) 57
I1044(1) 0
I1045(1) 0
I1046(1) 0
I1047(1) 0
I1048(1) 0
I1049(1) 0
I1050(1) 0
I1051(1) 0
I1052(1) 133
I1053(1) 0
I1054(1) 0
I1055(1) 0
I1056(1) 0
I1057(1) 0
I1058(1) 0
I1059(1) 0
I1060(1) 0
I1061(1) 0
I1062(1) 0
I1063(1) 0
I1064(1) 0
I1065(1) 0
I1066(1) 0
I1067(1) 0
I1068(1) 0
B1069(7) 0
B1070(7) 0
B1071(7) 0
B1072(7) 0
B1073(7) 0
B1074(7) 0
B1075(7) 0
B1076(7) 0
B1077(7) 0
B1078(7) 0
B1079(7) 0
B1080(7) 0
B1081(9) 0
B1082(9) 0
B1083(9) 0
B1084(9) 0
B1085(9) 0
B1086(9) 0
B1087(9) 0
B1088(9) 0
B1089(9) 0
B1090(9) 0
B1091(9) 0
B1092(9) 0
B1093(9) 0
B1094(9) 0
B1095(9) 0
B1096(9) 0
B1097(9) 0
B1098(9) 0
B1099(5) 0
B1100(5) 0
B1101(5) 0
B1102(7) 0
B1103(7) 0
B1104(7) 0
B1105(7) 0
B1106(7) 0
B1107(7) 0
B1108(7) 0
B1109(7) 0
B1110(7) 0
B1111(7) 0
B1112(7) 0
B1113(7) 0
B1114(9) 0
B1115(9) 0
B1116(9) 0
B1117(9) 0
B1118(9) 0
B1119(9) 0
B1120(9) 0
B1121(9) 0
B1122(9) 0
B1123(9) 0
B1124(9) 0
B1125(9) 0
B1126(9) 0
B1127(9) 0
B1128(9) 0
B1129(9) 0
B1130(9) 0
B1131(9) 0
B1132(5) 0
B1133(5) 0
B1134(5) 0
B1135(7) 0
B1136(7) 1
B1137(7) 0
B1138(7) 0
B1139(7) 0
B1140(7) 0
B1141(7) 0
B1142(7) 1
B1143(7) 0
B1144(7) 0
B1145(7) 0
B1146(7) 0
B1147(9) 0
B1148(9) 0
B1149(9) 0
B1150(9) 1
B1151(9) 0
B1152(9) 1
B1153(9) 0
B1154(9) 0
B1155(9) 0
B1156(9) 0
B1157(9) 0
B1158(9) 0
B1159(9) 0
B1160(9) 0
B1161(9) 0
B1162(9) 0
B1163(9) 0
B1164(9) 0
B1165(5) 0
B1166(5) 0
B1167(5) 0
B1168(7) 0
B1169(7) 1
B1170(7) 0
B1171(7) 0
B1172(7) 0
B1173(7) 0
B1174(7) 0
B1175(7) 0
B1176(7) 0
B1177(7) 0
B1178(7) 0
B1179(7) 0
B1180(9) 0
B1181(9) 0
B1182(9) 0
B1183(9) 0
B1184(9) 0
B1185(9) 0
B1186(9) 0
B1187(9) 0
B1188(9) 0
B1189(9) 0
B1190(9) 0
B1191(9) 0
B1192(9) 0
B1193(9) 0
B1194(9) 0
B1195(9) 0
B1196(9) 0
B1197(9) 0
B1198(5) 0
B1199(5) 0
B1200(5) 0
B1201(7) 0
B1202(7) 0
B1203(7) 0
B1204(7) 0
B1205(7) 0
B1206(7) 0
B1207(7) 0
B1208(7) 0
B1209(7) 0
B1210(7) 0
B1211(7) 0
B1212(7) 0
B1213(9) 0
B1214(9) 0
B1215(9) 0
B1216(9) 0
B1217(9) 0
B1218(9) 0
B1219(9) 0
B1220(9) 0
B1221(9) 0
B1222(9) 0
B1223(9) 0
B1224(9) 0
B1225(9) 0
B1226(9) 0
B1227(9) 0
B1228(9) 0
B1229(9) 0
B1230(9) 0
B1231(5) 0
B1232(5) 0
B1233(5) 0
B1234(7) 0
B1235(7) 0
B1236(7) 0
B1237(7) 0
B1238(7) 0
B1239(7) 0
B1240(7) 0
B1241(7) 0
B1242(7) 0
B1243(7) 0
B1244(7) 0
B1245(7) 0
B1246(9) 0
B1247(9) 0
B1248(9) 0
B1249(9) 0
B1250(9) 0
B1251(9) 0
B1252(9) 0
B1253(9) 0
B1254(9) 0
B1255(9) 0
B1256(9) 0
B1257(9) 0
B1258(9) 0
B1259(9) 0
B1260(9) 0
B1261(9) 0
B1262(9) 0
B1263(9) 0
B1264(5) 0
B1265(5) 0
B1266(5) 0
B1267(7) 0
B1268(7) 0
B1269(7) 0
B1270(7) 0
B1271(7) 0
B1272(7) 0
B1273(7) 0
B1274(7) 0
B1275(7) 1
B1276(7) 0
B1277(7) 0
B1278(7) 0
B1279(9) 0
B1280(9) 0
B1281(9) 0
B1282(9) 0
B1283(9) 0
B1284(9) 0
B1285(9) 0
B1286(9) 0
B1287(9) 0
B1288(9) 0
B1289(9) 0
B1290(9) 0
B1291(9) 0
B1292(9) 0
B1293(9) 0
B1294(9) 0
B1295(9) 0
B1296(9) 0
B1297(5) 0
B1298(5) 0
B1299(5) 0
B1300(7) 1
B1301(7) 1
B1302(7) 1
B1303(7) 0
B1304(7) 0
B1305(7) 0
B1306(7) 0
B1307(7) 0
B1308(7) 0
B1309(7) 0
B1310(7) 0
B1311(7) 0
B1312(9) 0
B1313(9) 0
B1314(9) 0
B1315(9) 0
B1316(9) 0
B1317(9) 0
B1318(9) 0
B1319(9) 0
B1320(9) 0
B1321(9) 0
B1322(9) 0
B1323(9) 0
B1324(9) 0
B1325(9) 0
B1326(9) 0
B1327(9) 0
B1328(9) 0
B1329(9) 0
B1330(5) 0
B1331(5) 0
B1332(5) 0
B1333(7) 0
B1334(7) 0
B1335(7) 0
B1336(7) 0
B1337(7) 0
B1338(7) 0
B1339(7) 0
B1340(7) 1
B1341(7) 0
B1342(7) 0
B1343(7) 0
B1344(7) 0
B1345(9) 0
B1346(9) 0
B1347(9) 0
B1348(9) 0
B1349(9) 0
B1350(9) 0
B1351(9) 0
B1352(9) 0
B1353(9) 0
B1354(9) 0
B1355(9) 0
B1356(9) 0
B1357(9) 0
B1358(9) 0
B1359(9) 0
B1360(9) 0
B1361(9) 0
B1362(9) 0
B1363(5) 0
B1364(5) 0
B1365(5) 0
B1366(7) 0
B1367(7) 0
B1368(7) 0
B1369(7) 0
B1370(7) 0
B1371(7) 0
B1372(7) 0
B1373(7) 0
B1374(7) 0
B1375(7) 0
B1376(7) 0
B1377(7) 0
B1378(9) 0
B1379(9) 0
B1380(9) 0
B1381(9) 0
B1382(9) 0
B1383(9) 0
B1384(9) 0
B1385(9) 0
B1386(9) 0
B1387(9) 0
B1388(9) 0
B1389(9) 0
B1390(9) 0
B1391(9) 0
B1392(9) 0
B1393(9) 0
B1394(9) 0
B1395(9) 0
B1396(5) 0
B1397(5) 0
B1398(5) 0
B1399(7) 1
B1400(7) 0
B1401(7) 0
B1402(7) 0
B1403(7) 0
B1404(7) 0
B1405(7) 0
B1406(7) 0
B1407(7) 0
B1408(7) 0
B1409(7) 0
B1410(7) 0
B1411(9) 0
B1412(9) 0
B1413(9) 0
B1414(9) 0
B1415(9) 0
B1416(9) 0
B1417(9) 0
B1418(9) 0
B1419(9) 0
B1420(9) 0
B1421(9) 0
B1422(9) 0
B1423(9) 0
B1424(9) 0
B1425(9) 0
B1426(9) 0
B1427(9) 0
B1428(9) 0
B1429(5) 0
B1430(5) 0
B1431(5) 0
B1432(7) 0
B1433(7) 0
B1434(7) 0
B1435(7) 0
B1436(7) 0
B1437(7) 0
B1438(7) 0
B1439(7) 0
B1440(7) 0
B1441(7) 0
B1442(7) 0
B1443(7) 0
B1444(9) 0
B1445(9) 0
B1446(9) 1
B1447(9) 0
B1448(9) 0
B1449(9) 0
B1450(9) 0
B1451(9) 0
B1452(9) 0
B1453(9) 0
B1454(9) 0
B1455(9) 0
B1456(9) 0
B1457(9) 0
B1458(9) 0
B1459(9) 0
B1460(9) 0
B1461(9) 0
B1462(5) 1
B1463(5) 0
B1464(5) 0
B1465(7) 0
B1466(7) 0
B1467(7) 0
B1468(7) 0
B1469(7) 0
B1470(7) 0
B1471(7) 0
B1472(7) 0
B1473(7) 0
B1474(7) 0
B1475(7) 0
B1476(7) 0
B1477(9) 0
B1478(9) 0
B1479(9) 0
B1480(9) 0
B1481(9) 0
B1482(9) 0
B1483(9) 0
B1484(9) 0
B1485(9) 0
B1486(9) 0
B1487(9) 0
B1488(9) 0
B1489(9) 0
B1490(9) 0
B1491(9) 0
B1492(9) 0
B1493(9) 0
B1494(9) 0
B1495(5) 0
B1496(5) 1
B1497(5) 0
B1498(7) 0
B1499(7) 0
B1500(7) 0
B1501(7) 0
B1502(7) 0
B1503(7) 0
B1504(7) 0
B1505(7) 0
B1506(7) 0
B1507(7) 0
B1508(7) 0
B1509(7) 0
B1510(9) 0
B1511(9) 0
B1512(9) 0
B1513(9) 0
B1514(9) 0
B1515(9) 0
B1516(9) 0
B1517(9) 0
B1518(9) 0
B1519(9) 0
B1520(9) 0
B1521(9) 0
B1522(9) 0
B1523(9) 0
B1524(9) 0
B1525(9) 0
B1526(9) 0
B1527(9) 0
B1528(5) 0
B1529(5) 0
B1530(5) 0
B1531(7) 0
B1532(7) 0
B1533(7) 0
B1534(7) 0
B1535(7) 0
B1536(7) 0
B1537(7) 0
B1538(7) 0
B1539(7) 0
B1540(7) 0
B1541(7) 0
B1542(7) 0
B1543(9) 0
B1544(9) 0
B1545(9) 0
B1546(9) 0
B1547(9) 0
B1548(9) 0
B1549(9) 0
B1550(9) 0
B1551(9) 0
B1552(9) 0
B1553(9) 0
B1554(9) 0
B1555(9) 0
B1556(9) 0
B1557(9) 0
B1558(9) 0
B1559(9) 0
B1560(9) 0
B1561(5) 0
B1562(5) 1
B1563(5) 0
B1564(7) 0
B1565(7) 0
B1566(7) 1
B1567(7) 0
B1568(7) 0
B1569(7) 0
B1570(7) 0
B1571(7) 0
B1572(7) 0
B1573(7) 0
B1574(7) 0
B1575(7) 0
B1576(9) 0
B1577(9) 0
B1578(9) 0
B1579(9) 0
B1580(9) 0
B1581(9) 0
B1582(9) 0
B1583(9) 0
B1584(9) 0
B1585(9) 0
B1586(9) 0
B1587(9) 0
B1588(9) 0
B1589(9) 0
B1590(9) 0
B1591(9) 0
B1592(9) 0
B1593(9) 0
B1594(5) 0
B1595(5) 0
B1596(5) 0
B1597(7) 0
B1598(7) 0
B1599(7) 0
B1600(7) 0
B1601(7) 0
B1602(7) 0
B1603(7) 0
B1604(7) 0
B1605(7) 0
B1606(7) 0
B1607(7) 0
B1608(7) 0
B1609(9) 0
B1610(9) 0
B1611(9) 0
B1612(9) 0
B1613(9) 0
B1614(9) 1
B1615(9) 0
B1616(9) 0
B1617(9) 0
B1618(9) 0
B1619(9) 0
B1620(9) 0
B1621(9) 0
B1622(9) 0
B1623(9) 0
B1624(9) 0
B1625(9) 0
B1626(9) 0
B1627(5) 0
B1628(5) 0
B1629(5) 0
B1630(7) 0
B1631(7) 0
B1632(7) 0
B1633(7) 0
B1634(7) 0
B1635(7) 0
B1636(7) 0
B1637(7) 1
B1638(7) 0
B1639(7) 0
B1640(7) 0
B1641(7) 0
B1642(9) 0
B1643(9) 0
B1644(9) 0
B1645(9) 0
B1646(9) 0
B1647(9) 1
B1648(9) 0
B1649(9) 0
B1650(9) 0
B1651(9) 0
B1652(9) 0
B1653(9) 0
B1654(9) 0
B1655(9) 0
B1656(9) 0
B1657(9) 0
B1658(9) 0
B1659(9) 0
B1660(5) 0
B1661(5) 0
B1662(5) 0
B1663(7) 0
B1664(7) 0
B1665(7) 0
B1666(7) 0
B1667(7) 0
B1668(7) 0
B1669(7) 0
B1670(7) 0
B1671(7) 0
B1672(7) 0
B1673(7) 0
B1674(7) 0
B1675(9) 0
B1676(9) 0
B1677(9) 0
B1678(9) 0
B1679(9) 0
B1680(9) 0
B1681(9) 0
B1682(9) 0
B1683(9) 0
B1684(9) 0
B1685(9) 0
B1686(9) 0
B1687(9) 0
B1688(9) 0
B1689(9) 0
B1690(9) 0
B1691(9) 0
B1692(9) 0
B1693(5) 0
B1694(5) 0
B1695(5) 0
B1696(7) 0
B1697(7) 0
B1698(7) 0
B1699(7) 0
B1700(7) 0
B1701(7) 0
B1702(7) 0
B1703(7) 1
B1704(7) 0
B1705(7) 0
B1706(7) 0
B1707(7) 0
B1708(9) 0
B1709(9) 0
B1710(9) 0
B1711(9) 0
B1712(9) 0
B1713(9) 0
B1714(9) 0
B1715(9) 0
B1716(9) 0
B1717(9) 0
B1718(9) 0
B1719(9) 0
B1720(9) 0
B1721(9) 0
B1722(9) 0
B1723(9) 0
B1724(9) 0
B1725(9) 0
B1726(5) 0
B1727(5) 0
B1728(5) 0
C1729(4) 0
C1730(4) 0
C1731(4) 0
C1732(4) 0
C1733(4) 0
C1734(4) 0
C1735(4) 0
C1736(4) 0
C1737(4) 0
C1738(4) 0
C1739(4) 0
C1740(4) 0
C1741(4) 0
C1742(4) 0
C1743(4) 0
C1744(4) 0
C1745(4) 0
C1746(4) 0
C1747(4) 0
C1748(4) 0
C1749(4) 0
C1750(4) 0
C1751(4) 0
C1752(4) 0
C1753(4) 0
C1754(4) 0
C1755(4) 0
C1756(4) 0
C1757(4) 0
C1758(4) 0
C1759(4) 0
C1760(4) 0
C1761(4) 0
C1762(4) 0
C1763(4) 0
C1764(4) 0
C1765(4) 0
C1766(4) 0
C1767(4) 0
C1768(4) 0
C1769(4) 0
C1770(4) 0
C1771(4) 0
C1772(4) 0
C1773(4) 0
C1774(4) 0
C1775(4) 0
C1776(4) 0
C1777(4) 0
C1778(4) 0
C1779(4) 0
C1780(4) 0
C1781(4) 0
C1782(4) 0
C1783(4) 0
C1784(4) 0
C1785(4) 0
C1786(4) 0
C1787(4) 0
C1788(4) 0
C1789(4) 0
C1790(4) 0
C1791(4) 0
C1792(4) 0
C1793(4) 0
C1794(4) 0
C1795(4) 0
C1796(4) 2.5064191430422178e-01
C1797(4) 0
C1798(4) 0
C1799(4) 0
C1800(4) 0
C1801(4) 0
C1802(4) 2.5064191430422178e-01
C1803(4) 0
C1804(4) 0
C1805(4) 0
C1806(4) 0
C1807(4) 0
C1808(4) 0
C1809(4) 0
C1810(4) 2.5064191430422178e-01
C1811(4) 0
C1812(4) 2.5064191430422178e-01
C1813(4) 0
C1814(4) 0
C1815(4) 0
C1816(4) 0
C1817(4) 0
C1818(4) 0
C1819(4) 0
C1820(4) 0
C1821(4) 0
C1822(4) 0
C1823(4) 0
C1824(4) 0
C1825(4) 0
C1826(4) 0
C1827(4) 0
C1828(4) 0
C1829(4) 2.5064191430422178e-01
C1830(4) 0
C1831(4) 0
C1832(4) 0
C1833(4) 0
C1834(4) 0
C1835(4) 0
C1836(4) 0
C1837(4) 0
C1838(4) 0
C1839(4) 0
C1840(4) 0
C1841(4) 0
C1842(4) 0
C1843(4) 0
C1844(4) 0
C1845(4) 0
C1846(4) 0
C1847(4) 0
C1848(4) 0
C1849(4) 0
C1850(4) 0
C1851(4) 0
C1852(4) 0
C1853(4) 0
C1854(4) 0
C1855(4) 0
C1856(4) 0
C1857(4) 0
C1858(4) 0
C1859(4) 0
C1860(4) 0
C1861(4) 0
C1862(4) 0
C1863(4) 0
C1864(4) 0
C1865(4) 0
C1866(4) 0
C1867(4) 0
C1868(4) 0
C1869(4) 0
C1870(4) 0
C1871(4) 0
C1872(4) 0
C1873(4) 0
C1874(4) 0
C1875(4) 0
C1876(4) 0
C1877(4) 0
C1878(4) 0
C1879(4) 0
C1880(4) 0
C1881(4) 0
C1882(4) 0
C1883(4) 0
C1884(4) 0
C1885(4) 0
C1886(4) 0
C1887(4) 0
C1888(4) 0
C1889(4) 0
C1890(4) 0
C1891(4) 0
C1892(4) 0
C1893(4) 0
C1894(4) 0
C1895(4) 0
C1896(4) 0
C1897(4) 0
C1898(4) 0
C1899(4) 0
C1900(4) 0
C1901(4) 0
C1902(4) 0
C1903(4) 0
C1904(4) 0
C1905(4) 0
C1906(4) 0
C1907(4) 0
C1908(4) 0
C1909(4) 0
C1910(4) 0
C1911(4) 0
C1912(4) 0
C1913(4) 0
C1914(4) 0
C1915(4) 0
C1916(4) 0
C1917(4) 0
C1918(4) 0
C1919(4) 0
C1920(4) 0
C1921(4) 0
C1922(4) 0
C1923(4) 0
C1924(4) 0
C1925(4) 0
C1926(4) 0
C1927(4) 0
C1928(4) 0
C1929(4) 0
C1930(4) 0
C1931(4) 0
C1932(4) 0
C1933(4) 0
C1934(4) 0
C1935(4) 2.5237899157097354e-01
C1936(4) 0
C1937(4) 0
C1938(4) 0
C1939(4) 0
C1940(4) 0
C1941(4) 0
C1942(4) 0
C1943(4) 0
C1944(4) 0
C1945(4) 0
C1946(4) 0
C1947(4) 0
C1948(4) 0
C1949(4) 0
C1950(4) 0
C1951(4) 0
C1952(4) 0
C1953(4) 0
C1954(4) 0
C1955(4) 0
C1956(4) 0
C1957(4) 0
C1958(4) 0
C1959(4) 0
C1960(4) 2.5237899157097221e-01
C1961(4) 2.5237899157097354e-01
C1962(4) 2.5237899157097354e-01
C1963(4) 0
C1964(4) 0
C1965(4) 0
C1966(4) 0
C1967(4) 0
C1968(4) 0
C1969(4) 0
C1970(4) 0
C1971(4) 0
C1972(4) 0
C1973(4) 0
C1974(4) 0
C1975(4) 0
C1976(4) 0
C1977(4) 0
C1978(4) 0
C1979(4) 0
C1980(4) 0
C1981(4) 0
C1982(4) 0
C1983(4) 0
C1984(4) 0
C1985(4) 0
C1986(4) 0
C1987(4) 0
C1988(4) 0
C1989(4) 0
C1990(4) 0
C1991(4) 0
C1992(4) 0
C1993(4) 0
C1994(4) 0
C1995(4) 0
C1996(4) 0
C1997(4) 0
C1998(4) 0
C1999(4) 0
C2000(4) 2.5237899157097354e-01
C2001(4) 0
C2002(4) 0
C2003(4) 0
C2004(4) 0
C2005(4) 0
C2006(4) 0
C2007(4) 0
C2008(4) 0
C2009(4) 0
C2010(4) 0
C2011(4) 0
C2012(4) 0
C2013(4) 0
C2014(4) 0
C2015(4) 0
C2016(4) 0
C2017(4) 0
C2018(4) 0
C2019(4) 0
C2020(4) 0
C2021(4) 0
C2022(4) 0
C2023(4) 0
C2024(4) 0
C2025(4) 0
C2026(4) 0
C2027(4) 0
C2028(4) 0
C2029(4) 0
C2030(4) 0
C2031(4) 0
C2032(4) 0
C2033(4) 0
C2034(4) 0
C2035(4) 0
C2036(4) 0
C2037(4) 0
C2038(4) 0
C2039(4) 0
C2040(4) 0
C2041(4) 0
C2042(4) 0
C2043(4) 0
C2044(4) 0
C2045(4) 0
C2046(4) 0
C2047(4) 0
C2048(4) 0
C2049(4) 0
C2050(4) 0
C2051(4) 0
C2052(4) 0
C2053(4) 0
C2054(4) 0
C2055(4) 0
C2056(4) 0
C2057(4) 0
C2058(4) 0
C2059(4) 2.5875260214786838e-01
C2060(4) 0
C2061(4) 0
C2062(4) 0
C2063(4) 0
C2064(4) 0
C2065(4) 0
C2066(4) 0
C2067(4) 0
C2068(4) 0
C2069(4) 0
C2070(4) 0
C2071(4) 0
C2072(4) 0
C2073(4) 0
C2074(4) 0
C2075(4) 0
C2076(4) 0
C2077(4) 0
C2078(4) 0
C2079(4) 0
C2080(4) 0
C2081(4) 0
C2082(4) 0
C2083(4) 0
C2084(4) 0
C2085(4) 0
C2086(4) 0
C2087(4) 0
C2088(4) 0
C2089(4) 0
C2090(4) 0
C2091(4) 0
C2092(4) 0
C2093(4) 0
C2094(4) 0
C2095(4) 0
C2096(4) 0
C2097(4) 0
C2098(4) 0
C2099(4) 0
C2100(4) 0
C2101(4) 0
C2102(4) 0
C2103(4) 0
C2104(4) 0
C2105(4) 0
C2106(4) 2.5875260214786838e-01
C2107(4) 0
C2108(4) 0
C2109(4) 0
C2110(4) 0
C2111(4) 0
C2112(4) 0
C2113(4) 0
C2114(4) 0
C2115(4) 0
C2116(4) 0
C2117(4) 0
C2118(4) 0
C2119(4) 0
C2120(4) 0
C2121(4) 0
C2122(4) 2.5875260214786966e-01
C2123(4) 0
C2124(4) 0
C2125(4) 0
C2126(4) 0
C2127(4) 0
C2128(4) 0
C2129(4) 0
C2130(4) 0
C2131(4) 0
C2132(4) 0
C2133(4) 0
C2134(4) 0
C2135(4) 0
C2136(4) 0
C2137(4) 0
C2138(4) 0
C2139(4) 0
C2140(4) 0
C2141(4) 0
C2142(4) 0
C2143(4) 0
C2144(4) 0
C2145(4) 0
C2146(4) 0
C2147(4) 0
C2148(4) 0
C2149(4) 0
C2150(4) 0
C2151(4) 0
C2152(4) 0
C2153(4) 0
C2154(4) 0
C2155(4) 0
C2156(4) 2.5875260214786838e-01
C2157(4) 0
C2158(4) 0
C2159(4) 0
C2160(4) 0
C2161(4) 0
C2162(4) 0
C2163(4) 0
C2164(4) 0
C2165(4) 0
C2166(4) 0
C2167(4) 0
C2168(4) 0
C2169(4) 0
C2170(4) 0
C2171(4) 0
C2172(4) 0
C2173(4) 0
C2174(4) 0
C2175(4) 0
C2176(4) 0
C2177(4) 0
C2178(4) 0
C2179(4) 0
C2180(4) 0
C2181(4) 0
C2182(4) 0
C2183(4) 0
C2184(4) 0
C2185(4) 0
C2186(4) 0
C2187(4) 0
C2188(4) 0
C2189(4) 0
C2190(4) 0
C2191(4) 0
C2192(4) 0
C2193(4) 0
C2194(4) 0
C2195(4) 0
C2196(4) 0
C2197(4) 0
C2198(4) 0
C2199(4) 0
C2200(4) 0
C2201(4) 0
C2202(4) 0
C2203(4) 0
C2204(4) 0
C2205(4) 0
C2206(4) 0
C2207(4) 0
C2208(4) 0
C2209(4) 0
C2210(4) 0
C2211(4) 0
C2212(4) 0
C2213(4) 0
C2214(4) 0
C2215(4) 0
C2216(4) 0
C2217(4) 0
C2218(4) 0
C2219(4) 0
C2220(4) 0
C2221(4) 0
C2222(4) 2.5875260214786838e-01
C2223(4) 0
C2224(4) 0
C2225(4) 0
C2226(4) 2.3822649197693627e-01
C2227(4) 0
C2228(4) 0
C2229(4) 0
C2230(4) 0
C2231(4) 0
C2232(4) 0
C2233(4) 0
C2234(4) 0
C2235(4) 0
C2236(4) 0
C2237(4) 0
C2238(4) 0
C2239(4) 0
C2240(4) 0
C2241(4) 0
C2242(4) 0
C2243(4) 0
C2244(4) 0
C2245(4) 0
C2246(4) 0
C2247(4) 0
C2248(4) 0
C2249(4) 0
C2250(4) 0
C2251(4) 0
C2252(4) 0
C2253(4) 0
C2254(4) 0
C2255(4) 0
C2256(4) 0
C2257(4) 0
C2258(4) 0
C2259(4) 0
C2260(4) 0
C2261(4) 0
C2262(4) 0
C2263(4) 0
C2264(4) 0
C2265(4) 0
C2266(4) 0
C2267(4) 0
C2268(4) 0
C2269(4) 0
C2270(4) 0
C2271(4) 0
C2272(4) 0
C2273(4) 0
C2274(4) 2.3822649197693835e-01
C2275(4) 0
C2276(4) 0
C2277(4) 0
C2278(4) 0
C2279(4) 0
C2280(4) 0
C2281(4) 0
C2282(4) 0
C2283(4) 0
C2284(4) 0
C2285(4) 0
C2286(4) 0
C2287(4) 0
C2288(4) 0
C2289(4) 0
C2290(4) 0
C2291(4) 0
C2292(4) 0
C2293(4) 0
C2294(4) 0
C2295(4) 0
C2296(4) 0
C2297(4) 2.3822649197693627e-01
C2298(4) 0
C2299(4) 0
C2300(4) 0
C2301(4) 0
C2302(4) 0
C2303(4) 0
C2304(4) 0
C2305(4) 0
C2306(4) 0
C2307(4) 2.3822649197693627e-01
C2308(4) 0
C2309(4) 0
C2310(4) 0
C2311(4) 0
C2312(4) 0
C2313(4) 0
C2314(4) 0
C2315(4) 0
C2316(4) 0
C2317(4) 0
C2318(4) 0
C2319(4) 0
C2320(4) 0
C2321(4) 0
C2322(4) 0
C2323(4) 0
C2324(4) 0
C2325(4) 0
C2326(4) 0
C2327(4) 0
C2328(4) 0
C2329(4) 0
C2330(4) 0
C2331(4) 0
C2332(4) 0
C2333(4) 0
C2334(4) 0
C2335(4) 0
C2336(4) 0
C2337(4) 0
C2338(4) 0
C2339(4) 0
C2340(4) 0
C2341(4) 0
C2342(4) 0
C2343(4) 0
C2344(4) 0
C2345(4) 0
C2346(4) 0
C2347(4) 0
C2348(4) 0
C2349(4) 0
C2350(4) 0
C2351(4) 0
C2352(4) 0
C2353(4) 0
C2354(4) 0
C2355(4) 0
C2356(4) 0
C2357(4) 0
C2358(4) 0
C2359(4) 0
C2360(4) 0
C2361(4) 0
C2362(4) 0
C2363(4) 2.3822649197693627e-01
C2364(4) 0
C2365(4) 0
C2366(4) 0
C2367(4) 0
C2368(4) 0
C2369(4) 0
C2370(4) 0
C2371(4) 0
C2372(4) 0
C2373(4) 0
C2374(4) 0
C2375(4) 0
C2376(4) 0
C2377(4) 0
C2378(4) 0
C2379(4) 0
C2380(4) 0
C2381(4) 0
C2382(4) 0
C2383(4) 0
C2384(4) 0
C2385(4) 0
C2386(4) 0
C2387(4) 0
C2388(4) 0
C2389(2) 0
C2390(2) 0
C2391(2) 0
C2392(2) 0
C2393(2) 0
C2394(2) 0
C2395(2) 0
C2396(2) 0
C2397(2) 8.5746814286248309e+01
C2398(2) 0
C2399(2) 0
C2400(2) 0
C2401(2) 0
C2402(2) 0
C2403(2) 0
C2404(2) 0
C2405(1) 5.3448228113779145e+01
C2406(1) 0
C2407(1) 3.8035374835336924e+01
C2408(1) 0
C2409(2) 0
C2410(2) 0
C2411(2) 0
C2412(2) 0
C2413(2) 0
C2414(2) 0
C2415(2) 0
C2416(2) 0
C2417(2) 81
C2418(2) 0
C2419(2) 0
C2420(2) 0
C2421(2) 0
C2422(2) 0
C2423(2) 0
C2424(2) 0
C2425(1) 90
C2426(1) 0
C2427(1) 0
C2428(1) 0
C2429(2) 0
C2430(2) 0
C2431(2) 0
C2432(2) 0
C2433(2) 0
C2434(2) 0
C2435(2) 0
C2436(2) 0
C2437(2) 87
C2438(2) 0
C2439(2) 0
C2440(2) 0
C2441(2) 0
C2442(2) 0
C2443(2) 0
C2444(2) 0
C2445(1) 0
C2446(1) 0
C2447(1) 77
C2448(1) 0
C2449(2) 0
C2450(2) 0
C2451(2) 0
C2452(2) 0
C2453(2) 0
C2454(2) 0
C2455(2) 0
C2456(2) 0
C2457(2) 76
C2458(2) 0
C2459(2) 0
C2460(2) 0
C2461(2) 0
C2462(2) 0
C2463(2) 0
C2464(2) 0
C2465(1) 89
C2466(1) 0
C2467(1) 1
C2468(1) 0
C2469(2) 0
C2470(2) 0
C2471(2) 0
C2472(2) 0
C2473(2) 1
C2474(2) 0
C2475(2) 0
C2476(2) 0
C2477(2) 101
C2478(2) 0
C2479(2) 0
C2480(2) 0
C2481(2) 1
C2482(2) 0
C2483(2) 0
C2484(2) 0
C2485(1) 34
C2486(1) 0
C2487(1) 77
C2488(1) 0
C2489(3) 7.4762100842902635e-01
C2490(3) 2.5237899157097354e-01
C2491(3) 7.6177350802306365e-01
C2492(3) 0
C2493(3) 1
C2494(3) 4.9697909412480468e-01
C2495(3) 1
C2496(3) 5.0302090587519532e-01
C2497(3) 3
C2498(3) 0
C2499(3) 2
C2500(3) 0
C2501(3) 2
C2502(3) 4.9697909412480468e-01
C2503(3) 1
C2504(3) 7.4124739785213156e-01
C2505(3) 2
C2506(3) 0
C2507(3) 1
C2508(3) 0
